(set-logic QF_UF)
(declare-fun A0 () Bool)
(declare-fun A1 () Bool)
(declare-fun A3 () Bool)
(declare-fun A4 () Bool)
(declare-fun A5 () Bool)
(declare-fun A6 () Bool)
(declare-fun A7 () Bool)
(declare-fun A8 () Bool)
(declare-fun A9 () Bool)
(declare-fun A10 () Bool)
(declare-fun A11 () Bool)
(declare-fun A12 () Bool)
(declare-fun A13 () Bool)
(declare-fun A14 () Bool)
(declare-fun A15 () Bool)
(declare-fun A16 () Bool)
(declare-fun A17 () Bool)
(declare-fun A18 () Bool)
(declare-fun A19 () Bool)
(declare-fun A20 () Bool)
(declare-fun A21 () Bool)
(declare-fun A22 () Bool)
(declare-fun A24 () Bool)
(assert (let ((.def_0 (not A17))) (let ((.def_1 (and .def_0 A0))) (let ((.def_2 (not A11))) (let ((.def_3 (not A10))) (let ((.def_4 (or .def_3 .def_2))) (let ((.def_5 (and .def_4 .def_1))) (let ((.def_6 (not A19))) (let ((.def_7 (not A3))) (let ((.def_8 (or .def_7 .def_6))) (let ((.def_9 (not A5))) (let ((.def_10 (not A0))) (let ((.def_11 (or .def_10 .def_9))) (let ((.def_12 (not .def_11))) (let ((.def_13 (or .def_12 .def_8))) (let ((.def_14 (not .def_13))) (let ((.def_15 (and .def_14 .def_5))) (let ((.def_16 (not .def_15))) (let ((.def_17 (not A9))) (let ((.def_18 (and .def_17 A22))) (let ((.def_19 (not .def_18))) (let ((.def_20 (not A24))) (let ((.def_21 (or .def_20 A6))) (let ((.def_22 (not .def_21))) (let ((.def_23 (and .def_22 .def_19))) (let ((.def_24 (or A0 A13))) (let ((.def_25 (= A21 A22))) (let ((.def_26 (and .def_25 .def_24))) (let ((.def_27 (not .def_26))) (let ((.def_28 (or .def_27 .def_23))) (let ((.def_29 (= .def_28 .def_16))) (let ((.def_30 (or A7 A3))) (let ((.def_31 (or A18 A20))) (let ((.def_32 (not .def_31))) (let ((.def_33 (or .def_32 .def_30))) (let ((.def_34 (not .def_33))) (let ((.def_35 (= A10 .def_2))) (let ((.def_36 (not .def_35))) (let ((.def_37 (or A14 A22))) (let ((.def_38 (and .def_37 .def_36))) (let ((.def_39 (and .def_38 .def_34))) (let ((.def_40 (not A7))) (let ((.def_41 (or A16 .def_40))) (let ((.def_42 (not A4))) (let ((.def_43 (or .def_42 A13))) (let ((.def_44 (not .def_43))) (let ((.def_45 (and .def_44 .def_41))) (let ((.def_46 (not .def_45))) (let ((.def_47 (not A13))) (let ((.def_48 (and .def_47 A18))) (let ((.def_49 (not .def_48))) (let ((.def_50 (not A22))) (let ((.def_51 (and A17 .def_50))) (let ((.def_52 (or .def_51 .def_49))) (let ((.def_53 (not .def_52))) (let ((.def_54 (or .def_53 .def_46))) (let ((.def_55 (not .def_54))) (let ((.def_56 (and .def_55 .def_39))) (let ((.def_57 (or .def_56 .def_29))) (let ((.def_58 (or A6 A3))) (let ((.def_59 (not A14))) (let ((.def_60 (and .def_59 A22))) (let ((.def_61 (or .def_60 .def_58))) (let ((.def_62 (not .def_61))) (let ((.def_63 (or A8 .def_47))) (let ((.def_64 (not A20))) (let ((.def_65 (= A16 .def_64))) (let ((.def_66 (not .def_65))) (let ((.def_67 (or .def_66 .def_63))) (let ((.def_68 (or .def_67 .def_62))) (let ((.def_69 (not A21))) (let ((.def_70 (and .def_0 .def_69))) (let ((.def_71 (and .def_7 A10))) (let ((.def_72 (and .def_71 .def_70))) (let ((.def_73 (not .def_72))) (let ((.def_74 (not A6))) (let ((.def_75 (not A16))) (let ((.def_76 (or .def_75 .def_74))) (let ((.def_77 (not .def_76))) (let ((.def_78 (or A9 .def_40))) (let ((.def_79 (and .def_78 .def_77))) (let ((.def_80 (and .def_79 .def_73))) (let ((.def_81 (not .def_80))) (let ((.def_82 (and .def_81 .def_68))) (let ((.def_83 (not .def_82))) (let ((.def_84 (or .def_47 .def_75))) (let ((.def_85 (not .def_84))) (let ((.def_86 (not A12))) (let ((.def_87 (or .def_86 A24))) (let ((.def_88 (not .def_87))) (let ((.def_89 (or .def_88 .def_85))) (let ((.def_90 (or A1 A20))) (let ((.def_91 (not A15))) (let ((.def_92 (and .def_91 .def_17))) (let ((.def_93 (not .def_92))) (let ((.def_94 (and .def_93 .def_90))) (let ((.def_95 (or .def_94 .def_89))) (let ((.def_96 (or A18 A6))) (let ((.def_97 (not .def_96))) (let ((.def_98 (or A13 A18))) (let ((.def_99 (not .def_98))) (let ((.def_100 (and .def_99 .def_97))) (let ((.def_101 (and A4 .def_0))) (let ((.def_102 (not .def_101))) (let ((.def_103 (and A16 A7))) (let ((.def_104 (and .def_103 .def_102))) (let ((.def_105 (and .def_104 .def_100))) (let ((.def_106 (and .def_105 .def_95))) (let ((.def_107 (or .def_106 .def_83))) (let ((.def_108 (or .def_107 .def_57))) .def_108))))))))))))))))))))))))))))))))))))))))))))))))))))))))))))))))))))))))))))))))))))))))))))))))))))))))))))))
(check-sat)
